c "149503.clq"
p edge 120 464
e 1 5
e 1 6
e 1 10
e 1 11
e 1 12
e 1 14
e 1 18
e 1 22
e 1 23
e 1 33
e 1 36
e 1 50
e 1 52
e 1 54
e 1 67
e 1 73
e 1 88
e 1 102
e 1 108
e 1 119
e 2 5
e 2 7
e 2 8
e 2 9
e 2 15
e 2 17
e 2 19
e 2 21
e 2 55
e 2 58
e 2 59
e 2 64
e 2 65
e 3 5
e 3 6
e 3 7
e 3 8
e 3 9
e 3 10
e 3 14
e 3 16
e 3 19
e 3 29
e 3 31
e 3 33
e 3 38
e 3 39
e 3 40
e 3 46
e 3 52
e 3 62
e 3 72
e 3 103
e 3 107
e 3 108
e 3 111
e 3 116
e 3 119
e 3 120
e 4 5
e 4 6
e 4 8
e 4 11
e 4 14
e 4 20
e 4 21
e 4 29
e 4 35
e 4 54
e 4 66
e 4 72
e 4 74
e 4 87
e 4 96
e 4 98
e 4 102
e 4 112
e 5 6
e 5 7
e 5 9
e 5 10
e 5 11
e 5 12
e 5 13
e 5 15
e 5 16
e 5 17
e 5 19
e 5 20
e 5 21
e 5 25
e 5 29
e 5 30
e 5 32
e 5 36
e 5 37
e 5 42
e 5 44
e 5 48
e 5 49
e 5 53
e 5 54
e 5 58
e 5 60
e 5 63
e 5 65
e 5 68
e 5 75
e 5 77
e 5 84
e 5 85
e 5 88
e 5 90
e 5 96
e 5 97
e 5 101
e 5 102
e 5 109
e 5 110
e 5 113
e 5 114
e 5 115
e 5 116
e 5 119
e 6 7
e 6 8
e 6 16
e 6 25
e 6 26
e 6 35
e 6 38
e 6 40
e 6 44
e 6 54
e 6 70
e 6 77
e 6 78
e 6 98
e 6 100
e 6 104
e 6 105
e 6 114
e 7 9
e 7 11
e 7 12
e 7 16
e 7 18
e 7 25
e 7 26
e 7 28
e 7 29
e 7 30
e 7 33
e 7 36
e 7 48
e 7 67
e 7 68
e 7 69
e 7 70
e 7 79
e 7 83
e 7 87
e 7 91
e 7 92
e 7 103
e 7 106
e 7 113
e 7 114
e 7 117
e 8 10
e 8 13
e 8 14
e 8 18
e 8 19
e 8 20
e 8 26
e 8 32
e 8 37
e 8 39
e 8 41
e 8 56
e 8 69
e 8 72
e 8 77
e 8 112
e 8 119
e 9 15
e 9 24
e 9 27
e 9 32
e 9 36
e 9 41
e 9 47
e 9 59
e 9 61
e 9 72
e 9 91
e 10 13
e 10 15
e 10 17
e 10 22
e 10 37
e 10 38
e 10 61
e 10 66
e 10 71
e 10 86
e 10 117
e 10 118
e 10 120
e 11 12
e 11 13
e 11 27
e 11 30
e 11 31
e 11 34
e 11 40
e 11 42
e 11 47
e 11 48
e 11 63
e 11 78
e 11 82
e 11 94
e 11 95
e 11 105
e 11 109
e 11 120
e 12 22
e 12 23
e 12 33
e 12 74
e 12 110
e 13 34
e 13 89
e 13 95
e 13 109
e 13 115
e 14 24
e 14 31
e 14 39
e 14 50
e 14 78
e 14 90
e 15 23
e 15 24
e 15 31
e 15 57
e 15 62
e 15 73
e 15 107
e 16 17
e 16 18
e 16 24
e 16 28
e 16 45
e 16 46
e 16 56
e 16 60
e 16 76
e 16 80
e 16 83
e 16 93
e 16 103
e 16 105
e 17 49
e 17 67
e 17 78
e 18 20
e 18 21
e 18 27
e 18 34
e 18 42
e 18 80
e 18 85
e 18 90
e 18 95
e 18 101
e 19 50
e 19 56
e 19 74
e 19 97
e 19 108
e 19 109
e 20 25
e 20 35
e 20 41
e 20 47
e 20 84
e 20 86
e 20 107
e 20 117
e 21 22
e 21 26
e 21 39
e 21 61
e 21 64
e 21 88
e 22 23
e 22 27
e 22 35
e 22 43
e 22 53
e 22 92
e 23 28
e 23 51
e 23 70
e 23 85
e 23 92
e 24 55
e 24 57
e 24 79
e 24 83
e 24 92
e 24 107
e 24 111
e 25 43
e 25 51
e 25 59
e 25 68
e 25 116
e 26 47
e 26 51
e 26 89
e 26 97
e 26 98
e 26 100
e 27 28
e 27 37
e 27 49
e 27 52
e 27 66
e 27 70
e 27 71
e 27 79
e 27 102
e 28 30
e 28 32
e 28 57
e 28 82
e 29 43
e 29 50
e 29 80
e 29 94
e 29 111
e 29 112
e 30 34
e 30 44
e 30 57
e 31 61
e 31 73
e 31 112
e 31 116
e 32 48
e 32 53
e 32 64
e 32 106
e 33 38
e 33 93
e 34 45
e 34 46
e 34 62
e 34 81
e 35 45
e 35 64
e 35 93
e 37 40
e 37 62
e 37 94
e 37 114
e 38 51
e 38 55
e 39 42
e 39 56
e 39 58
e 39 79
e 39 81
e 40 41
e 40 86
e 40 91
e 40 100
e 41 44
e 41 84
e 42 43
e 42 67
e 43 45
e 43 55
e 43 66
e 43 76
e 43 87
e 44 46
e 44 60
e 44 71
e 45 49
e 45 58
e 45 75
e 45 90
e 45 98
e 45 106
e 45 110
e 45 115
e 46 59
e 46 106
e 47 52
e 47 69
e 47 81
e 47 88
e 47 96
e 47 111
e 48 53
e 48 99
e 49 82
e 49 110
e 55 65
e 55 75
e 55 104
e 56 63
e 56 73
e 56 75
e 56 87
e 56 117
e 58 60
e 58 63
e 58 103
e 59 91
e 60 96
e 61 65
e 61 68
e 61 104
e 62 71
e 63 100
e 64 69
e 65 77
e 66 74
e 66 81
e 66 97
e 66 99
e 67 95
e 68 83
e 69 85
e 70 89
e 71 76
e 71 86
e 71 99
e 72 80
e 74 118
e 75 76
e 76 108
e 77 113
e 78 82
e 78 89
e 78 113
e 81 93
e 81 101
e 82 101
e 83 84
e 85 104
e 85 120
e 86 94
e 87 99
e 91 118
e 100 118
e 102 105
e 103 115
